(set-logic QF_S)
(declare-fun var_0xINPUT_112045 () String)
(assert (and (= (len var_0xINPUT_112045) 0) (= (len var_0xINPUT_112045) 0) (not (= var_0xINPUT_112045 "4PH2ujcENG"))))
(check-sat var_0xINPUT_112045)